250 10000
1 1367
2 1343 3 4 6 7 9 11 12 13 14 15 16 26 28 30 31 33 34 35 36 38 39 42 44 45 49 52 54 55 56 58 59 63 66 67 68 74 76 78 80 82 83 85 86 88 93 94 95 96 100 103 107 111 115 116 120 123 126 128 131 135 137 140 144 147 149 150 155 159 164 165 167 168 169 170 171 173 174 179 180 185 193 195 198 205 206 207 211 214 216 217 218 219 221 226 228 229 232 233 234 235 238 240 241 246 248 250
3 2019 4 6 7 9 11 12 14 26 31 33 34 35 36 38 39 44 45 49 54 58 59 63 66 67 68 74 76 80 82 85 93 94 95 100 103 107 111 116 123 126 128 135 137 140 144 147 149 150 155 159 164 165 168 169 170 173 174 180 198 206 211 214 216 217 219 226 228 229 233 234 235 238 240 241 248
4 1046 6 7 9 11 12 13 14 15 16 26 28 30 31 33 34 35 36 38 39 42 44 45 49 52 54 55 58 59 63 66 67 68 74 76 80 82 83 85 86 88 93 94 95 100 103 107 111 116 120 123 126 128 131 135 137 140 144 147 149 150 155 159 164 165 167 168 169 170 171 173 174 180 185 193 195 198 205 206 207 211 214 216 217 219 221 226 228 229 232 233 234 235 238 240 241 246 248
5 1400 6 7 11 14 31 33 35 38 44 58 63 66 68 74 76 80 82 93 94 100 103 107 123 128 137 144 147 149 150 155 159 164 165 168 169 170 173 211 216 219 228 229 234 240 241 248
6 1893 7 9 11 12 13 14 15 16 26 28 30 31 33 34 35 36 38 39 42 44 45 49 52 54 55 56 58 59 61 63 66 67 68 69 74 76 78 80 81 82 83 85 86 88 91 93 94 95 96 100 103 107 111 115 116 120 123 126 128 131 135 137 140 144 147 149 150 155 159 164 165 167 168 169 170 171 173 174 179 180 185 186 187 193 195 198 204 205 206 207 211 214 216 217 218 219 221 226 228 229 232 233 234 235 238 240 241 246 248 250
7 750 9 11 12 13 14 15 16 21 26 28 30 31 33 34 35 36 38 39 42 44 45 49 52 54 55 56 58 59 61 63 66 67 68 69 74 76 78 80 81 82 83 85 86 88 91 93 94 95 96 100 103 105 106 107 109 111 115 116 117 118 120 123 126 128 131 135 137 140 144 147 149 150 152 155 159 164 165 167 168 169 170 171 173 174 179 180 183 185 186 187 193 195 197 198 201 204 205 206 207 211 214 216 217 218 219 221 226 227 228 229 232 233 234 235 238 239 240 241 246 248 250
8 1578
9 2051 11 12 13 14 15 16 26 28 30 31 33 34 35 36 38 39 42 44 45 49 52 54 55 56 58 59 63 66 67 68 74 76 78 80 82 83 85 86 88 93 94 95 100 103 107 111 115 116 120 123 126 128 131 135 137 140 144 147 149 150 155 159 164 165 167 168 169 170 171 173 174 179 180 185 193 195 198 205 206 207 211 214 216 217 218 219 221 226 228 229 232 233 234 235 238 240 241 246 248 250
10 1797 63 80 82 123 147 159 169 170
11 1376 12 13 14 15 16 26 28 30 31 33 34 35 36 38 39 42 44 45 49 52 54 55 56 58 59 63 66 67 68 74 76 78 80 81 82 83 85 86 88 93 94 95 96 100 103 107 111 115 116 120 123 126 128 131 135 137 140 144 147 149 150 155 159 164 165 167 168 169 170 171 173 174 179 180 185 193 195 198 204 205 206 207 211 214 216 217 218 219 221 226 228 229 232 233 234 235 238 240 241 246 248 250
12 2030 13 14 16 26 28 30 31 33 34 35 36 38 39 42 44 45 49 52 54 55 58 59 63 66 67 68 74 76 80 82 83 85 86 88 93 94 95 100 103 107 111 116 120 123 126 128 131 135 137 140 144 147 149 150 155 159 164 165 167 168 169 170 171 173 174 180 185 193 195 198 205 206 207 211 214 216 217 219 221 226 228 229 232 233 234 235 238 240 241 246 248
13 847 14 16 26 28 30 31 33 34 35 36 38 39 42 44 45 49 52 54 55 58 59 63 66 67 68 74 76 80 82 83 85 88 93 94 95 100 103 107 111 116 120 123 126 128 131 135 137 140 144 147 149 150 155 159 164 165 167 168 169 170 171 173 174 180 185 193 195 198 205 206 211 214 216 217 219 221 226 228 229 232 233 234 235 238 240 241 246 248
14 693 15 16 21 26 28 30 31 33 34 35 36 38 39 42 44 45 49 52 54 55 56 58 59 61 63 66 67 68 69 74 76 78 80 81 82 83 85 86 88 91 93 94 95 96 100 103 105 106 107 111 115 116 117 118 120 123 126 128 131 135 137 140 144 147 149 150 152 155 159 164 165 167 168 169 170 171 173 174 179 180 183 185 186 187 193 195 197 198 201 204 205 206 207 211 214 216 217 218 219 221 226 227 228 229 232 233 234 235 238 239 240 241 246 248 250
15 1503 26 31 33 34 35 36 38 39 44 45 49 54 58 63 66 67 68 74 76 80 82 85 93 94 95 100 103 107 111 123 126 128 135 137 144 147 149 150 155 159 164 165 168 169 170 173 174 180 198 206 211 214 216 217 219 226 228 229 233 234 235 238 240 241 248
16 1631 26 31 33 34 35 36 38 39 42 44 45 49 54 58 59 63 66 67 68 74 76 80 82 83 85 93 94 95 100 103 107 111 116 123 126 128 135 137 140 144 147 149 150 155 159 164 165 167 168 169 170 173 174 180 198 206 211 214 216 217 219 221 226 228 229 233 234 235 238 240 241 246 248
17 1953
18 571
19 755
20 898
21 1698 38 58 63 66 68 74 76 80 82 94 100 103 107 123 137 144 147 149 150 155 159 164 168 169 170 173 211 216 219 228 229 234 240 241 248
22 1001
23 1069 58 63 68 74 76 80 82 100 103 123 147 159 168 169 170 229 240 241
24 2172
25 1973
26 2477 28 30 31 33 34 35 36 38 39 42 44 45 49 52 54 55 56 58 59 63 66 67 68 74 76 78 80 82 83 85 86 88 93 94 95 96 100 103 107 111 115 116 120 123 126 128 131 135 137 140 144 147 149 150 155 159 164 165 167 168 169 170 171 173 174 179 180 185 193 195 198 205 206 207 211 214 216 217 218 219 221 226 228 229 232 233 234 235 238 240 241 246 248 250
27 2126
28 519 31 33 34 35 36 38 39 42 44 45 49 54 55 58 59 63 66 67 68 74 76 80 82 83 85 93 94 95 100 103 107 111 116 120 123 126 128 131 135 137 140 144 147 149 150 155 159 164 165 167 168 169 170 171 173 174 180 195 198 206 211 214 216 217 219 221 226 228 229 233 234 235 238 240 241 246 248
29 525
30 1063 31 33 34 35 36 38 39 42 44 45 49 54 58 59 63 66 67 68 74 76 80 82 83 85 93 94 95 100 103 107 111 116 123 126 128 135 137 140 144 147 149 150 155 159 164 165 167 168 169 170 173 174 180 198 206 211 214 216 217 219 221 226 228 229 233 234 235 238 240 241 246 248
31 600 33 34 35 36 38 39 42 44 45 49 52 54 55 56 58 59 63 66 67 68 69 74 76 78 80 81 82 83 85 86 88 91 93 94 95 96 100 103 107 111 115 116 120 123 126 128 131 135 137 140 144 147 149 150 155 159 164 165 167 168 169 170 171 173 174 179 180 185 186 193 195 198 204 205 206 207 211 214 216 217 218 219 221 226 228 229 232 233 234 235 238 240 241 246 248 250
32 1054
33 2414 34 35 36 38 39 42 44 45 49 52 54 55 56 58 59 61 63 66 67 68 69 74 76 78 80 81 82 83 85 86 88 91 93 94 95 96 100 103 105 107 111 115 116 120 123 126 128 131 135 137 140 144 147 149 150 155 159 164 165 167 168 169 170 171 173 174 179 180 185 186 187 193 195 197 198 204 205 206 207 211 214 216 217 218 219 221 226 228 229 232 233 234 235 238 239 240 241 246 248 250
34 1856 35 36 38 39 42 44 45 49 52 54 55 56 58 59 63 66 67 68 74 76 78 80 82 83 85 86 88 93 94 95 96 100 103 107 111 115 116 120 123 126 128 131 135 137 140 144 147 149 150 155 159 164 165 167 168 169 170 171 173 174 179 180 185 193 195 198 205 206 207 211 214 216 217 218 219 221 226 228 229 232 233 234 235 238 240 241 246 248 250
35 586 36 38 39 42 44 45 49 52 54 55 56 58 59 63 66 67 68 74 76 78 80 81 82 83 85 86 88 93 94 95 96 100 103 107 111 115 116 120 123 126 128 131 135 137 140 144 147 149 150 155 159 164 165 167 168 169 170 171 173 174 179 180 185 193 195 198 204 205 206 207 211 214 216 217 218 219 221 226 228 229 232 233 234 235 238 240 241 246 248 250
36 1557 38 39 42 44 45 49 52 54 55 56 58 59 63 66 67 68 74 76 80 82 83 85 86 88 93 94 95 100 103 107 111 116 120 123 126 128 131 135 137 140 144 147 149 150 155 159 164 165 167 168 169 170 171 173 174 179 180 185 193 195 198 205 206 207 211 214 216 217 219 221 226 228 229 232 233 234 235 238 240 241 246 248 250
37 2035 63 80 82 123 147 159 168 169 170 229
38 2106 39 42 44 45 49 52 54 55 56 58 59 61 63 66 67 68 69 74 76 78 80 81 82 83 85 86 88 91 93 94 95 96 100 103 105 107 111 115 116 117 120 123 126 128 131 135 137 140 144 147 149 150 152 155 159 164 165 167 168 169 170 171 173 174 179 180 185 186 187 193 195 197 198 201 204 205 206 207 211 214 216 217 218 219 221 226 228 229 232 233 234 235 238 239 240 241 246 248 250
39 1171 42 44 45 49 52 54 55 56 58 59 63 66 67 68 74 76 78 80 81 82 83 85 86 88 93 94 95 96 100 103 107 111 115 116 120 123 126 128 131 135 137 140 144 147 149 150 155 159 164 165 167 168 169 170 171 173 174 179 180 185 193 195 198 204 205 206 207 211 214 216 217 218 219 221 226 228 229 232 233 234 235 238 240 241 246 248 250
40 1131
41 618
42 2439 44 45 49 52 54 55 58 59 63 66 67 68 74 76 80 82 83 85 88 93 94 95 100 103 107 111 116 120 123 126 128 131 135 137 140 144 147 149 150 155 159 164 165 167 168 169 170 171 173 174 180 185 195 198 205 206 211 214 216 217 219 221 226 228 229 233 234 235 238 240 241 246 248
43 653
44 686 45 49 52 54 55 56 58 59 61 63 66 67 68 69 74 76 78 80 81 82 83 85 86 88 91 93 94 95 96 100 103 107 111 115 116 120 123 126 128 131 135 137 140 144 147 149 150 155 159 164 165 167 168 169 170 171 173 174 179 180 185 186 187 193 195 198 204 205 206 207 211 214 216 217 218 219 221 226 228 229 232 233 234 235 238 240 241 246 248 250
45 2447 49 52 54 55 58 59 63 66 67 68 74 76 80 82 83 85 86 88 93 94 95 100 103 107 111 116 120 123 126 128 131 135 137 140 144 147 149 150 155 159 164 165 167 168 169 170 171 173 174 180 185 193 195 198 205 206 207 211 214 216 217 219 221 226 228 229 232 233 234 235 238 240 241 246 248
46 2234
47 1322
48 2345
49 1784 52 54 55 58 59 63 66 67 68 74 76 80 82 83 85 86 88 93 94 95 100 103 107 111 116 120 123 126 128 131 135 137 140 144 147 149 150 155 159 164 165 167 168 169 170 171 173 174 180 185 193 195 198 205 206 207 211 214 216 217 219 221 226 228 229 232 233 234 235 238 240 241 246 248
50 1683
51 934
52 1898 54 55 58 59 63 66 67 68 74 76 80 82 83 85 93 94 95 100 103 107 111 116 123 126 128 135 137 140 144 147 149 150 155 159 164 165 167 168 169 170 173 174 180 198 206 211 214 216 217 219 221 226 228 229 233 234 235 238 240 241 246 248
53 1751 58 63 74 80 82 123 147 159 168 169 170 229 240 241
54 1058 55 56 58 59 63 66 67 68 74 76 78 80 82 83 85 86 88 93 94 95 96 100 103 107 111 115 116 120 123 126 128 131 135 137 140 144 147 149 150 155 159 164 165 167 168 169 170 171 173 174 179 180 185 193 195 198 205 206 207 211 214 216 217 218 219 221 226 228 229 232 233 234 235 238 240 241 246 248 250
55 1268 58 59 63 66 67 68 74 76 80 82 83 85 93 94 95 100 103 107 111 116 120 123 126 128 131 135 137 140 144 147 149 150 155 159 164 165 167 168 169 170 171 173 174 180 185 195 198 205 206 211 214 216 217 219 221 226 228 229 233 234 235 238 240 241 246 248
56 932 58 63 66 67 68 74 76 80 82 93 94 95 100 103 107 111 123 128 135 137 144 147 149 150 155 159 164 165 168 169 170 173 180 206 211 216 217 219 228 229 233 234 238 240 241 248
57 1372
58 1407 59 61 63 66 67 68 69 74 76 78 80 81 82 83 85 86 88 89 91 93 94 95 96 100 103 105 106 107 109 111 112 114 115 116 117 118 119 120 123 126 128 131 135 137 140 144 147 149 150 152 153 155 159 164 165 167 168 169 170 171 173 174 179 180 183 185 186 187 193 195 197 198 201 204 205 206 207 211 214 216 217 218 219 221 226 227 228 229 232 233 234 235 238 239 240 241 246 248 250
59 1445 63 66 67 68 74 76 80 82 83 85 86 88 93 94 95 100 103 107 111 116 120 123 126 128 131 135 137 140 144 147 149 150 155 159 164 165 167 168 169 170 171 173 174 180 185 193 195 198 205 206 207 211 214 216 217 219 221 226 228 229 232 233 234 235 238 240 241 246 248
60 2255
61 2405 63 66 68 74 76 80 82 94 100 103 107 123 137 144 147 149 150 155 159 164 168 169 170 173 211 216 219 228 229 234 240 241 248
62 605
63 878 66 67 68 69 70 74 76 78 79 80 81 82 83 85 86 88 89 91 93 94 95 96 100 103 105 106 107 109 110 111 112 114 115 116 117 118 119 120 123 126 128 130 131 133 135 137 140 144 146 147 149 150 152 153 155 159 164 165 166 167 168 169 170 171 173 174 179 180 183 185 186 187 193 194 195 197 198 201 204 205 206 207 208 211 214 216 217 218 219 221 226 227 228 229 230 232 233 234 235 238 239 240 241 246 248 250
64 1184
65 744
66 1971 67 68 69 74 76 78 80 81 82 83 85 86 88 91 93 94 95 96 100 103 105 106 107 111 115 116 117 120 123 126 128 131 135 137 140 144 147 149 150 152 155 159 164 165 167 168 169 170 171 173 174 179 180 183 185 186 187 193 195 197 198 201 204 205 206 207 211 214 216 217 218 219 221 226 228 229 232 233 234 235 238 239 240 241 246 248 250
67 525 68 74 76 80 82 83 85 86 88 93 94 95 100 103 107 111 115 116 120 123 126 128 131 135 137 140 144 147 149 150 155 159 164 165 167 168 169 170 171 173 174 179 180 185 193 195 198 205 206 207 211 214 216 217 218 219 221 226 228 229 232 233 234 235 238 240 241 246 248 250
68 798 69 74 76 78 80 81 82 83 85 86 88 89 91 93 94 95 96 100 103 105 106 107 109 111 112 115 116 117 118 119 120 123 126 128 131 135 137 140 144 147 149 150 152 153 155 159 164 165 167 168 169 170 171 173 174 179 180 183 185 186 187 193 195 197 198 201 204 205 206 207 211 214 216 217 218 219 221 226 227 228 229 232 233 234 235 238 239 240 241 246 248 250
69 1522 74 76 80 82 93 94 100 103 107 123 128 137 144 147 149 150 155 159 164 165 168 169 170 173 211 216 219 228 229 234 240 241 248
70 1802 80 82 123 147 159 168 169 170 229 241
71 1662
72 1797
73 536
74 649 76 78 80 81 82 83 85 86 88 89 91 93 94 95 96 100 103 105 106 107 109 111 112 114 115 116 117 118 119 120 123 126 128 131 135 137 140 144 147 149 150 152 153 155 159 164 165 167 168 169 170 171 173 174 179 180 183 185 186 187 193 195 197 198 201 204 205 206 207 211 214 216 217 218 219 221 226 227 228 229 232 233 234 235 238 239 240 241 246 248 250
75 1337
76 594 78 80 81 82 83 85 86 88 91 93 94 95 96 100 103 105 106 107 109 111 115 116 117 118 119 120 123 126 128 131 135 137 140 144 147 149 150 152 153 155 159 164 165 167 168 169 170 171 173 174 179 180 183 185 186 187 193 195 197 198 201 204 205 206 207 211 214 216 217 218 219 221 226 227 228 229 232 233 234 235 238 239 240 241 246 248 250
77 905
78 1388 80 82 93 94 100 103 107 111 123 128 135 137 144 147 149 150 155 159 164 165 168 169 170 173 206 211 216 217 219 228 229 233 234 238 240 241 248
79 959 80 82 123 147 159 168 169 170 229
80 1759 81 82 83 85 86 88 89 91 93 94 95 96 100 103 105 106 107 109 110 111 112 114 115 116 117 118 119 120 123 126 128 130 131 133 135 137 140 144 146 147 149 150 152 153 155 159 164 165 166 167 168 169 170 171 173 174 179 180 183 185 186 187 193 194 195 197 198 201 204 205 206 207 208 211 214 216 217 218 219 221 226 227 228 229 230 232 233 234 235 238 239 240 241 246 248 250
81 1254 82 93 94 100 103 107 123 128 137 144 147 149 150 155 159 164 165 168 169 170 173 206 211 216 217 219 228 229 233 234 240 241 248
82 1772 83 85 86 88 89 91 93 94 95 96 100 103 105 106 107 109 110 111 112 114 115 116 117 118 119 120 123 126 128 130 131 133 135 137 140 144 146 147 149 150 152 153 155 159 164 165 166 167 168 169 170 171 173 174 179 180 183 185 186 187 193 194 195 197 198 201 204 205 206 207 208 211 214 216 217 218 219 221 226 227 228 229 230 232 233 234 235 238 239 240 241 246 248 250
83 1687 85 88 93 94 95 100 103 107 111 116 120 123 126 128 131 135 137 140 144 147 149 150 155 159 164 165 167 168 169 170 171 173 174 180 185 195 198 205 206 211 214 216 217 219 221 226 228 229 233 234 235 238 240 241 246 248
84 850
85 746 86 88 93 94 95 100 103 107 111 116 120 123 126 128 131 135 137 140 144 147 149 150 155 159 164 165 167 168 169 170 171 173 174 179 180 185 193 195 198 205 206 207 211 214 216 217 219 221 226 228 229 232 233 234 235 238 240 241 246 248 250
86 2233 93 94 95 100 103 107 111 116 123 126 128 135 137 140 144 147 149 150 155 159 164 165 168 169 170 173 174 180 198 206 211 214 216 217 219 226 228 229 233 234 235 238 240 241 248
87 2435
88 1076 93 94 95 100 103 107 111 116 123 126 128 135 137 140 144 147 149 150 155 159 164 165 167 168 169 170 173 174 180 198 206 211 214 216 217 219 221 226 228 229 233 234 235 238 240 241 248
89 2274 103 123 147 159 168 169 170 229 240 241
90 1239
91 1645 93 94 100 103 107 123 128 137 144 147 149 150 155 159 164 165 168 169 170 173 211 216 219 228 229 234 240 241 248
92 1648
93 556 94 95 96 100 103 107 111 115 116 120 123 126 128 131 135 137 140 144 147 149 150 155 159 164 165 167 168 169 170 171 173 174 179 180 185 186 193 195 198 204 205 206 207 211 214 216 217 218 219 221 226 228 229 232 233 234 235 238 240 241 246 248 250
94 1672 95 96 100 103 105 107 111 115 116 120 123 126 128 131 135 137 140 144 147 149 150 152 155 159 164 165 167 168 169 170 171 173 174 179 180 185 186 187 193 195 197 198 201 204 205 206 207 211 214 216 217 218 219 221 226 228 229 232 233 234 235 238 239 240 241 246 248 250
95 1270 100 103 107 111 115 116 120 123 126 128 131 135 137 140 144 147 149 150 155 159 164 165 167 168 169 170 171 173 174 179 180 185 193 195 198 205 206 207 211 214 216 217 218 219 221 226 228 229 232 233 234 235 238 240 241 246 248 250
96 1327 100 103 107 111 123 128 135 137 144 147 149 150 155 159 164 165 168 169 170 173 206 211 216 217 219 228 229 233 234 240 241 248
97 2194
98 1270
99 2495
100 639 103 105 106 107 109 111 112 115 116 117 118 119 120 123 126 128 131 135 137 140 144 147 149 150 152 153 155 159 164 165 167 168 169 170 171 173 174 179 180 183 185 186 187 193 195 197 198 201 204 205 206 207 211 214 216 217 218 219 221 226 227 228 229 232 233 234 235 238 239 240 241 246 248 250
101 1717
102 2453
103 560 105 106 107 109 111 112 115 116 117 118 119 120 123 126 128 131 135 137 140 144 147 149 150 152 153 155 159 164 165 167 168 169 170 171 173 174 179 180 183 185 186 187 193 195 197 198 201 204 205 206 207 211 214 216 217 218 219 221 226 227 228 229 232 233 234 235 238 239 240 241 246 248 250
104 1739
105 765 107 123 137 144 147 149 150 155 159 164 168 169 170 173 211 216 219 228 229 234 240 241 248
106 1938 107 123 137 144 147 150 155 159 164 168 169 170 173 216 219 228 229 240 241
107 1521 111 115 116 117 120 123 126 128 131 135 137 140 144 147 149 150 152 155 159 164 165 167 168 169 170 171 173 174 179 180 183 185 186 187 193 195 197 198 201 204 205 206 207 211 214 216 217 218 219 221 226 228 229 232 233 234 235 238 239 240 241 246 248 250
108 1452
109 1887 123 147 150 159 168 169 170 229 240 241
110 2406 123 147 159 168 169 170 229 240 241
111 1270 115 116 120 123 126 128 131 135 137 140 144 147 149 150 155 159 164 165 167 168 169 170 171 173 174 179 180 185 193 195 198 205 206 207 211 214 216 217 218 219 221 226 228 229 232 233 234 235 238 240 241 246 248 250
112 853 123 147 159 168 169 170 229 240 241
113 1855
114 1007 123 147 159 168 169 170 229 240 241
115 1208 123 128 135 137 144 147 149 150 155 159 164 165 168 169 170 173 180 206 211 216 217 219 228 229 233 234 238 240 241 248
116 2470 120 123 126 128 131 135 137 140 144 147 149 150 155 159 164 165 167 168 169 170 171 173 174 180 185 193 195 198 205 206 207 211 214 216 217 219 221 226 228 229 232 233 234 235 238 240 241 246 248
117 959 123 137 144 147 150 155 159 164 168 169 170 173 216 219 228 229 240 241 248
118 1668 123 147 150 159 164 168 169 170 229 240 241
119 1050 123 147 159 168 169 170 229 240 241
120 1413 123 126 128 131 135 137 140 144 147 149 150 155 159 164 165 167 168 169 170 171 173 174 180 185 195 198 205 206 211 214 216 217 219 221 226 228 229 233 234 235 238 240 241 246 248
121 2280
122 2388
123 1082 126 128 130 131 133 135 137 140 144 146 147 149 150 152 153 155 159 164 165 166 167 168 169 170 171 173 174 179 180 183 185 186 187 193 194 195 197 198 201 204 205 206 207 208 211 214 216 217 218 219 221 226 227 228 229 230 232 233 234 235 238 239 240 241 246 248 250
124 2175
125 1516
126 2189 128 131 135 137 140 144 147 149 150 155 159 164 165 167 168 169 170 171 173 174 180 185 193 195 198 205 206 207 211 214 216 217 219 221 226 228 229 232 233 234 235 238 240 241 246 248
127 1341
128 1276 131 135 137 140 144 147 149 150 155 159 164 165 167 168 169 170 171 173 174 179 180 185 186 193 195 198 204 205 206 207 211 214 216 217 218 219 221 226 228 229 232 233 234 235 238 240 241 246 248 250
129 1012
130 1274 147 159 168 169 170 229 240 241
131 1676 135 137 140 144 147 149 150 155 159 164 165 167 168 169 170 171 173 174 180 185 195 198 205 206 211 214 216 217 219 221 226 228 229 233 234 235 238 240 241 246 248
132 1986
133 2052 147 159 168 169 170 229 241
134 1498
135 1363 137 140 144 147 149 150 155 159 164 165 167 168 169 170 171 173 174 179 180 185 193 195 198 205 206 207 211 214 216 217 218 219 221 226 228 229 232 233 234 235 238 240 241 246 248 250
136 1069
137 1658 140 144 147 149 150 152 155 159 164 165 167 168 169 170 171 173 174 179 180 183 185 186 187 193 195 197 198 201 204 205 206 207 211 214 216 217 218 219 221 226 228 229 232 233 234 235 238 239 240 241 246 248 250
138 828
139 1632
140 2439 144 147 149 150 155 159 164 165 167 168 169 170 171 173 174 180 185 193 195 198 205 206 207 211 214 216 217 219 221 226 228 229 232 233 234 235 238 240 241 246 248
141 588
142 756
143 1079
144 1377 147 149 150 152 155 159 164 165 167 168 169 170 171 173 174 179 180 183 185 186 187 193 195 197 198 201 204 205 206 207 211 214 216 217 218 219 221 226 228 229 232 233 234 235 238 239 240 241 246 248 250
145 1454
146 1684 147 159 168 169 170 229 240 241
147 2138 149 150 152 153 155 159 164 165 166 167 168 169 170 171 173 174 179 180 183 185 186 187 193 194 195 197 198 201 204 205 206 207 208 211 214 216 217 218 219 221 226 227 228 229 232 233 234 235 238 239 240 241 246 248 250
148 1108
149 727 150 152 155 159 164 165 167 168 169 170 171 173 174 179 180 185 186 187 193 195 197 198 201 204 205 206 207 211 214 216 217 218 219 221 226 228 229 232 233 234 235 238 239 240 241 246 248 250
150 1337 152 155 159 164 165 167 168 169 170 171 173 174 179 180 183 185 186 187 193 195 197 198 201 204 205 206 207 211 214 216 217 218 219 221 226 227 228 229 232 233 234 235 238 239 240 241 246 248 250
151 1913
152 1910 155 159 164 168 169 170 173 211 216 219 228 229 240 241 248
153 518 159 168 169 170 229 240 241
154 2340
155 1641 159 164 165 167 168 169 170 171 173 174 179 180 183 185 186 187 193 195 197 198 201 204 205 206 207 211 214 216 217 218 219 221 226 228 229 232 233 234 235 238 239 240 241 246 248 250
156 785
157 1796
158 2495
159 520 164 165 166 167 168 169 170 171 173 174 179 180 183 185 186 187 193 194 195 197 198 201 204 205 206 207 208 211 214 216 217 218 219 221 226 227 228 229 230 232 233 234 235 238 239 240 241 246 248 250
160 2382
161 597
162 1573
163 2332
164 1766 165 167 168 169 170 171 173 174 179 180 183 185 186 187 193 195 197 198 201 204 205 206 207 211 214 216 217 218 219 221 226 227 228 229 232 233 234 235 238 239 240 241 246 248 250
165 1844 167 168 169 170 171 173 174 179 180 185 186 193 195 198 204 205 206 207 211 214 216 217 218 219 221 226 228 229 232 233 234 235 238 240 241 246 248 250
166 579 169 170
167 1570 168 169 170 171 173 174 180 185 195 198 205 206 211 214 216 217 219 221 226 228 229 232 233 234 235 238 240 241 246 248
168 573 169 170 171 173 174 179 180 183 185 186 187 193 194 195 197 198 201 204 205 206 207 208 211 214 216 217 218 219 221 226 227 228 229 232 233 234 235 238 239 240 241 246 248 250
169 2384 170 171 173 174 179 180 183 185 186 187 193 194 195 197 198 201 204 205 206 207 208 211 214 216 217 218 219 221 226 227 228 229 230 232 233 234 235 238 239 240 241 246 248 250
170 2208 171 173 174 179 180 183 185 186 187 193 194 195 197 198 201 204 205 206 207 208 211 214 216 217 218 219 221 226 227 228 229 232 233 234 235 238 239 240 241 246 248 250
171 1172 173 174 180 195 198 205 206 211 214 216 217 219 221 226 228 229 233 234 235 238 240 241 246 248
172 1324
173 1290 174 179 180 183 185 186 187 193 195 197 198 201 204 205 206 207 211 214 216 217 218 219 221 226 228 229 232 233 234 235 238 239 240 241 246 248 250
174 1576 180 185 193 195 198 205 206 207 211 214 216 217 219 221 226 228 229 232 233 234 235 238 240 241 246 248
175 2139
176 1730
177 1603
178 704
179 2069 180 198 206 211 216 217 219 228 229 233 234 235 238 240 241 248
180 2496 185 193 195 198 205 206 207 211 214 216 217 218 219 221 226 228 229 232 233 234 235 238 240 241 246 248 250
181 2230
182 2470
183 1865 216 219 228 229 240 241
184 1653
185 724 198 206 211 214 216 217 219 221 226 228 229 233 234 235 238 240 241 246 248
186 694 211 216 219 228 229 234 240 241 248
187 1830 211 216 219 228 229 234 240 241 248
188 740
189 2429
190 1563
191 2275
192 1459
193 902 198 206 211 214 216 217 219 221 226 228 229 233 234 235 238 240 241 248
194 1596 229
195 1831 198 205 206 211 214 216 217 219 221 226 228 229 233 234 235 238 240 241 246 248
196 957
197 2470 211 216 219 228 229 234 240 241 248
198 1034 205 206 207 211 214 216 217 219 221 226 228 229 232 233 234 235 238 240 241 246 248 250
199 1493
200 1352
201 2065 211 216 219 228 229 234 240 241 248
202 2471
203 2466
204 1558 206 211 216 217 219 228 229 233 234 240 241 248
205 2279 206 211 214 216 217 219 221 226 228 229 233 234 235 238 240 241 246 248
206 972 207 211 214 216 217 218 219 221 226 228 229 232 233 234 235 238 240 241 246 248 250
207 843 211 214 216 217 219 226 228 229 233 234 235 238 240 241 248
208 1312 229
209 2380
210 1067
211 1873 214 216 217 218 219 221 226 228 229 232 233 234 235 238 239 240 241 246 248 250
212 774
213 2399
214 1602 216 217 219 221 226 228 229 232 233 234 235 238 240 241 246 248 250
215 2281
216 2100 217 218 219 221 226 228 229 232 233 234 235 238 239 240 241 246 248 250
217 844 218 219 221 226 228 229 232 233 234 235 238 240 241 246 248 250
218 862 219 228 229 233 234 238 240 241 248
219 1144 221 226 228 229 232 233 234 235 238 239 240 241 246 248 250
220 2224
221 1274 226 228 229 232 233 234 235 238 240 241 246 248
222 528
223 878
224 909
225 2248
226 2071 228 229 232 233 234 235 238 240 241 246 248
227 2492 229 240 241
228 1036 229 232 233 234 235 238 239 240 241 246 248 250
229 1651 232 233 234 235 238 239 240 241 246 248 250
230 876
231 1015
232 1774 233 234 235 238 240 241 248
233 1121 234 235 238 240 241 246 248 250
234 2275 235 238 239 240 241 246 248 250
235 1478 238 240 241 246 248 250
236 2246
237 1058
238 2201 240 241 246 248 250
239 1586 240 241 248
240 1522 241 246 248 250
241 1574 246 248 250
242 2494
243 2476
244 1265
245 1994
246 1439 248
247 2062
248 1627 250
249 844
250 992
